example/sol2/PMEDIAN.sol
# Objective value = 28097.9504256093
y_j0_t0 0
y_j0_t1 0
y_j0_t2 1
y_j1_t0 0
y_j1_t1 0
y_j1_t2 1
y_j2_t0 0
y_j2_t1 0
y_j2_t2 1
x_i0_j0_t0 0
x_i0_j0_t1 0
x_i0_j0_t2 1
x_i1_j0_t0 0
x_i1_j0_t1 0
x_i1_j0_t2 0
x_i2_j0_t0 0
x_i2_j0_t1 0
x_i2_j0_t2 1
x_i3_j0_t0 0
x_i3_j0_t1 0
x_i3_j0_t2 0
x_i4_j0_t0 0
x_i4_j0_t1 0
x_i4_j0_t2 0
x_i5_j0_t0 0
x_i5_j0_t1 0
x_i5_j0_t2 1
x_i6_j0_t0 0
x_i6_j0_t1 0
x_i6_j0_t2 1
x_i7_j0_t0 0
x_i7_j0_t1 0
x_i7_j0_t2 0
x_i8_j0_t0 0
x_i8_j0_t1 0
x_i8_j0_t2 0
x_i9_j0_t0 0
x_i9_j0_t1 0
x_i9_j0_t2 1
x_i10_j0_t0 0
x_i10_j0_t1 0
x_i10_j0_t2 0
x_i11_j0_t0 0
x_i11_j0_t1 0
x_i11_j0_t2 0
x_i12_j0_t0 0
x_i12_j0_t1 0
x_i12_j0_t2 1
x_i13_j0_t0 0
x_i13_j0_t1 0
x_i13_j0_t2 0
x_i14_j0_t0 0
x_i14_j0_t1 0
x_i14_j0_t2 0
x_i15_j0_t0 0
x_i15_j0_t1 0
x_i15_j0_t2 1
x_i16_j0_t0 0
x_i16_j0_t1 0
x_i16_j0_t2 1
x_i17_j0_t0 0
x_i17_j0_t1 0
x_i17_j0_t2 0
x_i18_j0_t0 0
x_i18_j0_t1 0
x_i18_j0_t2 0
x_i19_j0_t0 0
x_i19_j0_t1 0
x_i19_j0_t2 1
x_i20_j0_t0 0
x_i20_j0_t1 0
x_i20_j0_t2 0
x_i21_j0_t0 0
x_i21_j0_t1 0
x_i21_j0_t2 0
x_i22_j0_t0 0
x_i22_j0_t1 0
x_i22_j0_t2 1
x_i23_j0_t0 0
x_i23_j0_t1 0
x_i23_j0_t2 0
x_i24_j0_t0 0
x_i24_j0_t1 0
x_i24_j0_t2 1
x_i25_j0_t0 0
x_i25_j0_t1 0
x_i25_j0_t2 0
x_i26_j0_t0 0
x_i26_j0_t1 0
x_i26_j0_t2 0
x_i27_j0_t0 0
x_i27_j0_t1 0
x_i27_j0_t2 0
x_i28_j0_t0 0
x_i28_j0_t1 0
x_i28_j0_t2 0
x_i29_j0_t0 0
x_i29_j0_t1 0
x_i29_j0_t2 0
x_i30_j0_t0 0
x_i30_j0_t1 0
x_i30_j0_t2 1
x_i31_j0_t0 0
x_i31_j0_t1 0
x_i31_j0_t2 0
x_i32_j0_t0 0
x_i32_j0_t1 0
x_i32_j0_t2 0
x_i33_j0_t0 0
x_i33_j0_t1 0
x_i33_j0_t2 1
x_i34_j0_t0 0
x_i34_j0_t1 0
x_i34_j0_t2 0
x_i35_j0_t0 0
x_i35_j0_t1 0
x_i35_j0_t2 0
x_i36_j0_t0 0
x_i36_j0_t1 0
x_i36_j0_t2 1
x_i37_j0_t0 0
x_i37_j0_t1 0
x_i37_j0_t2 1
x_i38_j0_t0 0
x_i38_j0_t1 0
x_i38_j0_t2 1
x_i39_j0_t0 0
x_i39_j0_t1 0
x_i39_j0_t2 0
x_i40_j0_t0 0
x_i40_j0_t1 0
x_i40_j0_t2 1
x_i41_j0_t0 0
x_i41_j0_t1 0
x_i41_j0_t2 0
x_i42_j0_t0 0
x_i42_j0_t1 0
x_i42_j0_t2 1
x_i43_j0_t0 0
x_i43_j0_t1 0
x_i43_j0_t2 1
x_i44_j0_t0 0
x_i44_j0_t1 0
x_i44_j0_t2 1
x_i45_j0_t0 0
x_i45_j0_t1 0
x_i45_j0_t2 1
x_i46_j0_t0 0
x_i46_j0_t1 0
x_i46_j0_t2 0
x_i47_j0_t0 0
x_i47_j0_t1 0
x_i47_j0_t2 1
x_i48_j0_t0 0
x_i48_j0_t1 0
x_i48_j0_t2 0
x_i49_j0_t0 0
x_i49_j0_t1 0
x_i49_j0_t2 1
x_i50_j0_t0 0
x_i50_j0_t1 0
x_i50_j0_t2 0
x_i51_j0_t0 0
x_i51_j0_t1 0
x_i51_j0_t2 1
x_i52_j0_t0 0
x_i52_j0_t1 0
x_i52_j0_t2 0
x_i53_j0_t0 0
x_i53_j0_t1 0
x_i53_j0_t2 1
x_i54_j0_t0 0
x_i54_j0_t1 0
x_i54_j0_t2 1
x_i55_j0_t0 0
x_i55_j0_t1 0
x_i55_j0_t2 0
x_i56_j0_t0 0
x_i56_j0_t1 0
x_i56_j0_t2 0
x_i57_j0_t0 0
x_i57_j0_t1 0
x_i57_j0_t2 1
x_i58_j0_t0 0
x_i58_j0_t1 0
x_i58_j0_t2 1
x_i59_j0_t0 0
x_i59_j0_t1 0
x_i59_j0_t2 1
x_i60_j0_t0 0
x_i60_j0_t1 0
x_i60_j0_t2 0
x_i61_j0_t0 0
x_i61_j0_t1 0
x_i61_j0_t2 0
x_i62_j0_t0 0
x_i62_j0_t1 0
x_i62_j0_t2 1
x_i63_j0_t0 0
x_i63_j0_t1 0
x_i63_j0_t2 1
x_i64_j0_t0 0
x_i64_j0_t1 0
x_i64_j0_t2 1
x_i65_j0_t0 0
x_i65_j0_t1 0
x_i65_j0_t2 1
x_i66_j0_t0 0
x_i66_j0_t1 0
x_i66_j0_t2 1
x_i67_j0_t0 0
x_i67_j0_t1 0
x_i67_j0_t2 0
x_i68_j0_t0 0
x_i68_j0_t1 0
x_i68_j0_t2 0
x_i69_j0_t0 0
x_i69_j0_t1 0
x_i69_j0_t2 1
x_i70_j0_t0 0
x_i70_j0_t1 0
x_i70_j0_t2 0
x_i71_j0_t0 0
x_i71_j0_t1 0
x_i71_j0_t2 1
x_i72_j0_t0 0
x_i72_j0_t1 0
x_i72_j0_t2 1
x_i73_j0_t0 0
x_i73_j0_t1 0
x_i73_j0_t2 0
x_i74_j0_t0 0
x_i74_j0_t1 0
x_i74_j0_t2 0
x_i75_j0_t0 0
x_i75_j0_t1 0
x_i75_j0_t2 1
x_i76_j0_t0 0
x_i76_j0_t1 0
x_i76_j0_t2 0
x_i77_j0_t0 0
x_i77_j0_t1 0
x_i77_j0_t2 0
x_i78_j0_t0 0
x_i78_j0_t1 0
x_i78_j0_t2 0
x_i79_j0_t0 0
x_i79_j0_t1 0
x_i79_j0_t2 1
x_i80_j0_t0 0
x_i80_j0_t1 0
x_i80_j0_t2 1
x_i81_j0_t0 0
x_i81_j0_t1 0
x_i81_j0_t2 0
x_i82_j0_t0 0
x_i82_j0_t1 0
x_i82_j0_t2 1
x_i83_j0_t0 0
x_i83_j0_t1 0
x_i83_j0_t2 0
x_i84_j0_t0 0
x_i84_j0_t1 0
x_i84_j0_t2 1
x_i85_j0_t0 0
x_i85_j0_t1 0
x_i85_j0_t2 0
x_i86_j0_t0 0
x_i86_j0_t1 0
x_i86_j0_t2 1
x_i87_j0_t0 0
x_i87_j0_t1 0
x_i87_j0_t2 1
x_i88_j0_t0 0
x_i88_j0_t1 0
x_i88_j0_t2 0
x_i89_j0_t0 0
x_i89_j0_t1 0
x_i89_j0_t2 0
x_i90_j0_t0 0
x_i90_j0_t1 0
x_i90_j0_t2 0
x_i91_j0_t0 0
x_i91_j0_t1 0
x_i91_j0_t2 0
x_i92_j0_t0 0
x_i92_j0_t1 0
x_i92_j0_t2 0
x_i93_j0_t0 0
x_i93_j0_t1 0
x_i93_j0_t2 1
x_i94_j0_t0 0
x_i94_j0_t1 0
x_i94_j0_t2 1
x_i95_j0_t0 0
x_i95_j0_t1 0
x_i95_j0_t2 0
x_i96_j0_t0 0
x_i96_j0_t1 0
x_i96_j0_t2 1
x_i97_j0_t0 0
x_i97_j0_t1 0
x_i97_j0_t2 1
x_i98_j0_t0 0
x_i98_j0_t1 0
x_i98_j0_t2 1
x_i99_j0_t0 0
x_i99_j0_t1 0
x_i99_j0_t2 0
x_i0_j1_t0 0
x_i0_j1_t1 0
x_i0_j1_t2 0
x_i1_j1_t0 0
x_i1_j1_t1 0
x_i1_j1_t2 0
x_i2_j1_t0 0
x_i2_j1_t1 0
x_i2_j1_t2 0
x_i3_j1_t0 0
x_i3_j1_t1 0
x_i3_j1_t2 0
x_i4_j1_t0 0
x_i4_j1_t1 0
x_i4_j1_t2 0
x_i5_j1_t0 0
x_i5_j1_t1 0
x_i5_j1_t2 0
x_i6_j1_t0 0
x_i6_j1_t1 0
x_i6_j1_t2 0
x_i7_j1_t0 0
x_i7_j1_t1 0
x_i7_j1_t2 0
x_i8_j1_t0 0
x_i8_j1_t1 0
x_i8_j1_t2 1
x_i9_j1_t0 0
x_i9_j1_t1 0
x_i9_j1_t2 0
x_i10_j1_t0 0
x_i10_j1_t1 0
x_i10_j1_t2 1
x_i11_j1_t0 0
x_i11_j1_t1 0
x_i11_j1_t2 1
x_i12_j1_t0 0
x_i12_j1_t1 0
x_i12_j1_t2 0
x_i13_j1_t0 0
x_i13_j1_t1 0
x_i13_j1_t2 0
x_i14_j1_t0 0
x_i14_j1_t1 0
x_i14_j1_t2 1
x_i15_j1_t0 0
x_i15_j1_t1 0
x_i15_j1_t2 0
x_i16_j1_t0 0
x_i16_j1_t1 0
x_i16_j1_t2 0
x_i17_j1_t0 0
x_i17_j1_t1 0
x_i17_j1_t2 0
x_i18_j1_t0 0
x_i18_j1_t1 0
x_i18_j1_t2 0
x_i19_j1_t0 0
x_i19_j1_t1 0
x_i19_j1_t2 0
x_i20_j1_t0 0
x_i20_j1_t1 0
x_i20_j1_t2 0
x_i21_j1_t0 0
x_i21_j1_t1 0
x_i21_j1_t2 0
x_i22_j1_t0 0
x_i22_j1_t1 0
x_i22_j1_t2 0
x_i23_j1_t0 0
x_i23_j1_t1 0
x_i23_j1_t2 1
x_i24_j1_t0 0
x_i24_j1_t1 0
x_i24_j1_t2 0
x_i25_j1_t0 0
x_i25_j1_t1 0
x_i25_j1_t2 0
x_i26_j1_t0 0
x_i26_j1_t1 0
x_i26_j1_t2 0
x_i27_j1_t0 0
x_i27_j1_t1 0
x_i27_j1_t2 1
x_i28_j1_t0 0
x_i28_j1_t1 0
x_i28_j1_t2 0
x_i29_j1_t0 0
x_i29_j1_t1 0
x_i29_j1_t2 1
x_i30_j1_t0 0
x_i30_j1_t1 0
x_i30_j1_t2 0
x_i31_j1_t0 0
x_i31_j1_t1 0
x_i31_j1_t2 0
x_i32_j1_t0 0
x_i32_j1_t1 0
x_i32_j1_t2 1
x_i33_j1_t0 0
x_i33_j1_t1 0
x_i33_j1_t2 0
x_i34_j1_t0 0
x_i34_j1_t1 0
x_i34_j1_t2 1
x_i35_j1_t0 0
x_i35_j1_t1 0
x_i35_j1_t2 1
x_i36_j1_t0 0
x_i36_j1_t1 0
x_i36_j1_t2 0
x_i37_j1_t0 0
x_i37_j1_t1 0
x_i37_j1_t2 0
x_i38_j1_t0 0
x_i38_j1_t1 0
x_i38_j1_t2 0
x_i39_j1_t0 0
x_i39_j1_t1 0
x_i39_j1_t2 0
x_i40_j1_t0 0
x_i40_j1_t1 0
x_i40_j1_t2 0
x_i41_j1_t0 0
x_i41_j1_t1 0
x_i41_j1_t2 1
x_i42_j1_t0 0
x_i42_j1_t1 0
x_i42_j1_t2 0
x_i43_j1_t0 0
x_i43_j1_t1 0
x_i43_j1_t2 0
x_i44_j1_t0 0
x_i44_j1_t1 0
x_i44_j1_t2 0
x_i45_j1_t0 0
x_i45_j1_t1 0
x_i45_j1_t2 0
x_i46_j1_t0 0
x_i46_j1_t1 0
x_i46_j1_t2 0
x_i47_j1_t0 0
x_i47_j1_t1 0
x_i47_j1_t2 0
x_i48_j1_t0 0
x_i48_j1_t1 0
x_i48_j1_t2 1
x_i49_j1_t0 0
x_i49_j1_t1 0
x_i49_j1_t2 0
x_i50_j1_t0 0
x_i50_j1_t1 0
x_i50_j1_t2 0
x_i51_j1_t0 0
x_i51_j1_t1 0
x_i51_j1_t2 0
x_i52_j1_t0 0
x_i52_j1_t1 0
x_i52_j1_t2 0
x_i53_j1_t0 0
x_i53_j1_t1 0
x_i53_j1_t2 0
x_i54_j1_t0 0
x_i54_j1_t1 0
x_i54_j1_t2 0
x_i55_j1_t0 0
x_i55_j1_t1 0
x_i55_j1_t2 1
x_i56_j1_t0 0
x_i56_j1_t1 0
x_i56_j1_t2 1
x_i57_j1_t0 0
x_i57_j1_t1 0
x_i57_j1_t2 0
x_i58_j1_t0 0
x_i58_j1_t1 0
x_i58_j1_t2 0
x_i59_j1_t0 0
x_i59_j1_t1 0
x_i59_j1_t2 0
x_i60_j1_t0 0
x_i60_j1_t1 0
x_i60_j1_t2 0
x_i61_j1_t0 0
x_i61_j1_t1 0
x_i61_j1_t2 1
x_i62_j1_t0 0
x_i62_j1_t1 0
x_i62_j1_t2 0
x_i63_j1_t0 0
x_i63_j1_t1 0
x_i63_j1_t2 0
x_i64_j1_t0 0
x_i64_j1_t1 0
x_i64_j1_t2 0
x_i65_j1_t0 0
x_i65_j1_t1 0
x_i65_j1_t2 0
x_i66_j1_t0 0
x_i66_j1_t1 0
x_i66_j1_t2 0
x_i67_j1_t0 0
x_i67_j1_t1 0
x_i67_j1_t2 0
x_i68_j1_t0 0
x_i68_j1_t1 0
x_i68_j1_t2 1
x_i69_j1_t0 0
x_i69_j1_t1 0
x_i69_j1_t2 0
x_i70_j1_t0 0
x_i70_j1_t1 0
x_i70_j1_t2 1
x_i71_j1_t0 0
x_i71_j1_t1 0
x_i71_j1_t2 0
x_i72_j1_t0 0
x_i72_j1_t1 0
x_i72_j1_t2 0
x_i73_j1_t0 0
x_i73_j1_t1 0
x_i73_j1_t2 1
x_i74_j1_t0 0
x_i74_j1_t1 0
x_i74_j1_t2 1
x_i75_j1_t0 0
x_i75_j1_t1 0
x_i75_j1_t2 0
x_i76_j1_t0 0
x_i76_j1_t1 0
x_i76_j1_t2 0
x_i77_j1_t0 0
x_i77_j1_t1 0
x_i77_j1_t2 1
x_i78_j1_t0 0
x_i78_j1_t1 0
x_i78_j1_t2 1
x_i79_j1_t0 0
x_i79_j1_t1 0
x_i79_j1_t2 0
x_i80_j1_t0 0
x_i80_j1_t1 0
x_i80_j1_t2 0
x_i81_j1_t0 0
x_i81_j1_t1 0
x_i81_j1_t2 1
x_i82_j1_t0 0
x_i82_j1_t1 0
x_i82_j1_t2 0
x_i83_j1_t0 0
x_i83_j1_t1 0
x_i83_j1_t2 0
x_i84_j1_t0 0
x_i84_j1_t1 0
x_i84_j1_t2 0
x_i85_j1_t0 0
x_i85_j1_t1 0
x_i85_j1_t2 1
x_i86_j1_t0 0
x_i86_j1_t1 0
x_i86_j1_t2 0
x_i87_j1_t0 0
x_i87_j1_t1 0
x_i87_j1_t2 0
x_i88_j1_t0 0
x_i88_j1_t1 0
x_i88_j1_t2 0
x_i89_j1_t0 0
x_i89_j1_t1 0
x_i89_j1_t2 1
x_i90_j1_t0 0
x_i90_j1_t1 0
x_i90_j1_t2 1
x_i91_j1_t0 0
x_i91_j1_t1 0
x_i91_j1_t2 1
x_i92_j1_t0 0
x_i92_j1_t1 0
x_i92_j1_t2 1
x_i93_j1_t0 0
x_i93_j1_t1 0
x_i93_j1_t2 0
x_i94_j1_t0 0
x_i94_j1_t1 0
x_i94_j1_t2 0
x_i95_j1_t0 0
x_i95_j1_t1 0
x_i95_j1_t2 0
x_i96_j1_t0 0
x_i96_j1_t1 0
x_i96_j1_t2 0
x_i97_j1_t0 0
x_i97_j1_t1 0
x_i97_j1_t2 0
x_i98_j1_t0 0
x_i98_j1_t1 0
x_i98_j1_t2 0
x_i99_j1_t0 0
x_i99_j1_t1 0
x_i99_j1_t2 0
x_i0_j2_t0 0
x_i0_j2_t1 0
x_i0_j2_t2 0
x_i1_j2_t0 0
x_i1_j2_t1 0
x_i1_j2_t2 1
x_i2_j2_t0 0
x_i2_j2_t1 0
x_i2_j2_t2 0
x_i3_j2_t0 0
x_i3_j2_t1 0
x_i3_j2_t2 1
x_i4_j2_t0 0
x_i4_j2_t1 0
x_i4_j2_t2 1
x_i5_j2_t0 0
x_i5_j2_t1 0
x_i5_j2_t2 0
x_i6_j2_t0 0
x_i6_j2_t1 0
x_i6_j2_t2 0
x_i7_j2_t0 0
x_i7_j2_t1 0
x_i7_j2_t2 1
x_i8_j2_t0 0
x_i8_j2_t1 0
x_i8_j2_t2 0
x_i9_j2_t0 0
x_i9_j2_t1 0
x_i9_j2_t2 0
x_i10_j2_t0 0
x_i10_j2_t1 0
x_i10_j2_t2 0
x_i11_j2_t0 0
x_i11_j2_t1 0
x_i11_j2_t2 0
x_i12_j2_t0 0
x_i12_j2_t1 0
x_i12_j2_t2 0
x_i13_j2_t0 0
x_i13_j2_t1 0
x_i13_j2_t2 1
x_i14_j2_t0 0
x_i14_j2_t1 0
x_i14_j2_t2 0
x_i15_j2_t0 0
x_i15_j2_t1 0
x_i15_j2_t2 0
x_i16_j2_t0 0
x_i16_j2_t1 0
x_i16_j2_t2 0
x_i17_j2_t0 0
x_i17_j2_t1 0
x_i17_j2_t2 1
x_i18_j2_t0 0
x_i18_j2_t1 0
x_i18_j2_t2 1
x_i19_j2_t0 0
x_i19_j2_t1 0
x_i19_j2_t2 0
x_i20_j2_t0 0
x_i20_j2_t1 0
x_i20_j2_t2 1
x_i21_j2_t0 0
x_i21_j2_t1 0
x_i21_j2_t2 1
x_i22_j2_t0 0
x_i22_j2_t1 0
x_i22_j2_t2 0
x_i23_j2_t0 0
x_i23_j2_t1 0
x_i23_j2_t2 0
x_i24_j2_t0 0
x_i24_j2_t1 0
x_i24_j2_t2 0
x_i25_j2_t0 0
x_i25_j2_t1 0
x_i25_j2_t2 1
x_i26_j2_t0 0
x_i26_j2_t1 0
x_i26_j2_t2 1
x_i27_j2_t0 0
x_i27_j2_t1 0
x_i27_j2_t2 0
x_i28_j2_t0 0
x_i28_j2_t1 0
x_i28_j2_t2 1
x_i29_j2_t0 0
x_i29_j2_t1 0
x_i29_j2_t2 0
x_i30_j2_t0 0
x_i30_j2_t1 0
x_i30_j2_t2 0
x_i31_j2_t0 0
x_i31_j2_t1 0
x_i31_j2_t2 1
x_i32_j2_t0 0
x_i32_j2_t1 0
x_i32_j2_t2 0
x_i33_j2_t0 0
x_i33_j2_t1 0
x_i33_j2_t2 0
x_i34_j2_t0 0
x_i34_j2_t1 0
x_i34_j2_t2 0
x_i35_j2_t0 0
x_i35_j2_t1 0
x_i35_j2_t2 0
x_i36_j2_t0 0
x_i36_j2_t1 0
x_i36_j2_t2 0
x_i37_j2_t0 0
x_i37_j2_t1 0
x_i37_j2_t2 0
x_i38_j2_t0 0
x_i38_j2_t1 0
x_i38_j2_t2 0
x_i39_j2_t0 0
x_i39_j2_t1 0
x_i39_j2_t2 1
x_i40_j2_t0 0
x_i40_j2_t1 0
x_i40_j2_t2 0
x_i41_j2_t0 0
x_i41_j2_t1 0
x_i41_j2_t2 0
x_i42_j2_t0 0
x_i42_j2_t1 0
x_i42_j2_t2 0
x_i43_j2_t0 0
x_i43_j2_t1 0
x_i43_j2_t2 0
x_i44_j2_t0 0
x_i44_j2_t1 0
x_i44_j2_t2 0
x_i45_j2_t0 0
x_i45_j2_t1 0
x_i45_j2_t2 0
x_i46_j2_t0 0
x_i46_j2_t1 0
x_i46_j2_t2 1
x_i47_j2_t0 0
x_i47_j2_t1 0
x_i47_j2_t2 0
x_i48_j2_t0 0
x_i48_j2_t1 0
x_i48_j2_t2 0
x_i49_j2_t0 0
x_i49_j2_t1 0
x_i49_j2_t2 0
x_i50_j2_t0 0
x_i50_j2_t1 0
x_i50_j2_t2 1
x_i51_j2_t0 0
x_i51_j2_t1 0
x_i51_j2_t2 0
x_i52_j2_t0 0
x_i52_j2_t1 0
x_i52_j2_t2 1
x_i53_j2_t0 0
x_i53_j2_t1 0
x_i53_j2_t2 0
x_i54_j2_t0 0
x_i54_j2_t1 0
x_i54_j2_t2 0
x_i55_j2_t0 0
x_i55_j2_t1 0
x_i55_j2_t2 0
x_i56_j2_t0 0
x_i56_j2_t1 0
x_i56_j2_t2 0
x_i57_j2_t0 0
x_i57_j2_t1 0
x_i57_j2_t2 0
x_i58_j2_t0 0
x_i58_j2_t1 0
x_i58_j2_t2 0
x_i59_j2_t0 0
x_i59_j2_t1 0
x_i59_j2_t2 0
x_i60_j2_t0 0
x_i60_j2_t1 0
x_i60_j2_t2 1
x_i61_j2_t0 0
x_i61_j2_t1 0
x_i61_j2_t2 0
x_i62_j2_t0 0
x_i62_j2_t1 0
x_i62_j2_t2 0
x_i63_j2_t0 0
x_i63_j2_t1 0
x_i63_j2_t2 0
x_i64_j2_t0 0
x_i64_j2_t1 0
x_i64_j2_t2 0
x_i65_j2_t0 0
x_i65_j2_t1 0
x_i65_j2_t2 0
x_i66_j2_t0 0
x_i66_j2_t1 0
x_i66_j2_t2 0
x_i67_j2_t0 0
x_i67_j2_t1 0
x_i67_j2_t2 1
x_i68_j2_t0 0
x_i68_j2_t1 0
x_i68_j2_t2 0
x_i69_j2_t0 0
x_i69_j2_t1 0
x_i69_j2_t2 0
x_i70_j2_t0 0
x_i70_j2_t1 0
x_i70_j2_t2 0
x_i71_j2_t0 0
x_i71_j2_t1 0
x_i71_j2_t2 0
x_i72_j2_t0 0
x_i72_j2_t1 0
x_i72_j2_t2 0
x_i73_j2_t0 0
x_i73_j2_t1 0
x_i73_j2_t2 0
x_i74_j2_t0 0
x_i74_j2_t1 0
x_i74_j2_t2 0
x_i75_j2_t0 0
x_i75_j2_t1 0
x_i75_j2_t2 0
x_i76_j2_t0 0
x_i76_j2_t1 0
x_i76_j2_t2 1
x_i77_j2_t0 0
x_i77_j2_t1 0
x_i77_j2_t2 0
x_i78_j2_t0 0
x_i78_j2_t1 0
x_i78_j2_t2 0
x_i79_j2_t0 0
x_i79_j2_t1 0
x_i79_j2_t2 0
x_i80_j2_t0 0
x_i80_j2_t1 0
x_i80_j2_t2 0
x_i81_j2_t0 0
x_i81_j2_t1 0
x_i81_j2_t2 0
x_i82_j2_t0 0
x_i82_j2_t1 0
x_i82_j2_t2 0
x_i83_j2_t0 0
x_i83_j2_t1 0
x_i83_j2_t2 1
x_i84_j2_t0 0
x_i84_j2_t1 0
x_i84_j2_t2 0
x_i85_j2_t0 0
x_i85_j2_t1 0
x_i85_j2_t2 0
x_i86_j2_t0 0
x_i86_j2_t1 0
x_i86_j2_t2 0
x_i87_j2_t0 0
x_i87_j2_t1 0
x_i87_j2_t2 0
x_i88_j2_t0 0
x_i88_j2_t1 0
x_i88_j2_t2 1
x_i89_j2_t0 0
x_i89_j2_t1 0
x_i89_j2_t2 0
x_i90_j2_t0 0
x_i90_j2_t1 0
x_i90_j2_t2 0
x_i91_j2_t0 0
x_i91_j2_t1 0
x_i91_j2_t2 0
x_i92_j2_t0 0
x_i92_j2_t1 0
x_i92_j2_t2 0
x_i93_j2_t0 0
x_i93_j2_t1 0
x_i93_j2_t2 0
x_i94_j2_t0 0
x_i94_j2_t1 0
x_i94_j2_t2 0
x_i95_j2_t0 0
x_i95_j2_t1 0
x_i95_j2_t2 1
x_i96_j2_t0 0
x_i96_j2_t1 0
x_i96_j2_t2 0
x_i97_j2_t0 0
x_i97_j2_t1 0
x_i97_j2_t2 0
x_i98_j2_t0 0
x_i98_j2_t1 0
x_i98_j2_t2 0
x_i99_j2_t0 0
x_i99_j2_t1 0
x_i99_j2_t2 1
G_g0_0 0
G_g0_1 0
G_g0_2 1
