example/sol2/PMEDIAN.log

Gurobi 9.0.2 (win64, .NET) logging started Wed Oct  7 23:22:44 2020

Academic license - for non-commercial use only
Gurobi Optimizer version 9.0.2 build v9.0.2rc0 (win64)
Optimize a model with 115 rows, 912 columns and 3621 nonzeros
Model fingerprint: 0x6aad1c44
Variable types: 0 continuous, 912 integer (912 binary)
Coefficient statistics:
  Matrix range     [1e+00, 1e+02]
  Objective range  [2e+01, 1e+03]
  Bounds range     [1e+00, 1e+00]
  RHS range        [1e+00, 3e+00]
Found heuristic solution: objective 56760.984013
Presolve removed 4 rows and 1 columns
Presolve time: 0.02s
Presolved: 111 rows, 911 columns, 2711 nonzeros
Variable types: 0 continuous, 911 integer (911 binary)

Root relaxation: objective 2.609795e+04, 132 iterations, 0.00 seconds

    Nodes    |    Current Node    |     Objective Bounds      |     Work
 Expl Unexpl |  Obj  Depth IntInf | Incumbent    BestBd   Gap | It/Node Time

     0     0 26097.9504    0    3 56760.9840 26097.9504  54.0%     -    0s
H    0     0                    28097.950426 26097.9504  7.12%     -    0s
     0     0 26097.9504    0    7 28097.9504 26097.9504  7.12%     -    0s
     0     0 26097.9504    0    7 28097.9504 26097.9504  7.12%     -    0s
     0     2 26097.9504    0    7 28097.9504 26097.9504  7.12%     -    0s

Cutting planes:
  Cover: 3
  Clique: 97
  MIR: 3

Explored 35 nodes (695 simplex iterations) in 0.09 seconds
Thread count was 4 (of 4 available processors)

Solution count 2: 28098 56761 

Optimal solution found (tolerance 1.00e-04)
Best objective 2.809795042561e+04, best bound 2.809795042561e+04, gap 0.0000%
